c status 98 1469274320822
c status 30 1469274320823
s td 50 30 101
b 1 3 1
b 2 36 1
b 3 17 1
b 4 5 1
b 5 20 1
b 6 14 2 1
b 7 30 31 1 22
b 8 47 58 69 1
b 9 31 32 1 22
b 10 80 25 2 1
b 11 32 34 1 22
b 12 34 1 22 33
b 13 6 8 25 91 2 1
b 14 9 7 25 91 2 1
b 15 8 7 25 91 2 1
b 16 13 7 10 25 91 2 1
b 17 12 11 7 10 25 91 2 1
b 18 21 23 24 26 27 28 29 1
b 19 96 84 76 67 61 59 49 1 37
b 20 76 67 61 59 49 77 1 37
b 21 23 24 26 27 28 29 16 1 22
b 22 24 26 27 28 29 2 16 1 22
b 23 18 19 7 10 15 25 91 2 16 1
b 24 67 61 59 49 70 71 72 73 74 77 1 37
b 25 61 59 49 66 70 71 72 73 74 77 65 64 63 62 1 37
b 26 59 49 66 70 71 72 73 74 77 65 64 63 62 60 1 37
b 27 49 53 66 70 71 72 73 74 77 65 64 63 62 60 1 37 68
b 28 57 1 22 33 35 37 38 39 40 41 42 43 44 45 46 48 50 51 52
b 29 7 10 15 25 91 2 16 53 66 70 71 72 73 74 77 65 64 63 62 60 1
b 30 2 16 53 66 70 71 72 73 74 77 65 64 63 62 60 1 22
b 31 53 66 70 71 72 73 74 77 65 64 63 62 60 1 22 37 68
b 32 65 64 63 62 60 1 22 37 44 68
b 33 64 63 62 60 1 22 37 43 44 68
b 34 63 62 60 1 22 37 42 43 44 68
b 35 62 60 1 22 37 41 42 43 44 68
b 36 60 1 22 37 40 41 42 43 44 68
b 37 75 79 1 22 33 35 37 38 39 40 41 42 43 44 45 46 48 50 51 52 68 78
b 38 81 82 83 85 86 1 22 33 35 37 38 39 40 41 42 43 44 45 46 48 50 51 52 68 78
b 39 82 83 85 86 87 1 22 33 35 37 38 39 40 41 42 43 44 45 46 48 50 51 52 68 78 88
b 40 83 85 89 86 87 1 22 33 35 37 38 39 40 41 42 43 44 45 46 48 50 51 52 68 78 88
b 41 85 89 86 87 1 22 33 35 37 38 39 40 41 42 43 44 45 46 48 50 51 52 68 78 88 90
b 42 89 86 87 1 22 33 35 37 38 39 40 41 42 43 44 45 46 48 50 51 52 68 78 88 90 92
b 43 86 87 93 1 22 33 35 37 38 39 40 41 42 43 44 45 46 48 50 51 52 68 78 88 90 92
b 44 87 93 94 1 22 33 35 37 38 39 40 41 42 43 44 45 46 48 50 51 52 68 78 88 90 92 95
b 45 93 94 1 22 33 35 37 38 39 40 41 42 43 44 45 46 48 50 51 52 68 78 88 90 92 95 97 98
b 46 94 1 22 33 35 37 38 39 40 41 42 43 44 45 46 48 50 51 52 68 78 88 90 92 95 97 98 99 100
b 47 56 1 22 33 35 37 38 39 40 41 42 43 44 45 46 48 50 51 52 68 78 88 90 92 95 97 98 99 100 101
b 48 4 1 22 33 35 37 38 39 40 41 42 43 44 45 46 48 50 51 52 68 78 88 90 92 95 97 98 99 100 101
b 49 55 1 22 33 35 37 38 39 40 41 42 43 44 45 46 48 50 51 52 68 78 88 90 92 95 97 98 99 100 101
b 50 54 1 22 33 35 37 38 39 40 41 42 43 44 45 46 48 50 51 52 68 78 88 90 92 95 97 98 99 100 101
1 2
1 50
50 47
50 48
50 49
47 46
46 45
45 44
44 43
43 42
42 41
41 40
40 39
39 38
45 37
45 28
45 36
36 35
35 34
34 33
33 32
32 31
31 27
31 30
30 29
27 26
26 25
25 24
29 23
24 20
20 19
23 17
29 16
23 15
29 14
15 13
30 22
22 21
21 18
44 12
12 11
11 9
9 7
23 10
10 6
17 3
17 4
4 8
8 5
